(declare-const X String)
; Toolbar[^\n\r]*User-Agent\x3A\w+Host\x3A.*toX-Mailer\x3aLogsmax-Cookie\x3aAppName
(assert (str.in.re X (re.++ (str.to.re "Toolbar") (re.* (re.union (str.to.re "\x0a") (str.to.re "\x0d"))) (str.to.re "User-Agent:") (re.+ (re.union (re.range "0" "9") (re.range "A" "Z") (re.range "a" "z") (str.to.re "_"))) (str.to.re "Host:") (re.* re.allchar) (str.to.re "toX-Mailer:\x13Logsmax-Cookie:AppName\x0a"))))
; /(\x19\x00|\x00\x5C)\x00n\x00w\x00d\x00b\x00l\x00i\x00b\x00\.\x00d\x00l\x00l\x00\x00\x00/i
(assert (str.in.re X (re.++ (str.to.re "/") (re.union (str.to.re "\x19\x00") (str.to.re "\x00\x5c")) (str.to.re "\x00n\x00w\x00d\x00b\x00l\x00i\x00b\x00.\x00d\x00l\x00l\x00\x00\x00/i\x0a"))))
(check-sat)
